500
    1   485   485
    2    94    94
    3   326   326
    4     6     6
    5   248   248
    6   416   416
    7   421   421
    8   492   492
    9   322   322
   10   149   149
   11   295   295
   12   237   237
   13    43    43
   14   457   457
   15   345   345
   16   315   315
   17   455   455
   18   446   446
   19   252   252
   20   422   422
   21     9     9
   22   291   291
   23   401   401
   24   359   359
   25   122   122
   26   167   167
   27    94    94
   28    98    98
   29   238   238
   30     7     7
   31    74    74
   32    44    44
   33   215   215
   34   334   334
   35   382   382
   36   266   266
   37   367   367
   38   494   494
   39   484   484
   40   393   393
   41   299   299
   42   133   133
   43   433   433
   44   131   131
   45   182   182
   46   428   428
   47    72    72
   48   200   200
   49   374   374
   50   117   117
   51   138   138
   52   374   374
   53   356   356
   54   220   220
   55   145   145
   56   419   419
   57   495   495
   58   294   294
   59    29    29
   60   196   196
   61   199   199
   62   497   497
   63   277   277
   64   116   116
   65    97    97
   66   408   408
   67   219   219
   68    39    39
   69   242   242
   70   207   207
   71   107   107
   72    69    69
   73   122   122
   74    37    37
   75    70    70
   76   431   431
   77    98    98
   78   226   226
   79   100   100
   80   487   487
   81   145   145
   82   272   272
   83   267   267
   84    13    13
   85   472   472
   86    81    81
   87   395   395
   88   443   443
   89   213   213
   90    58    58
   91   248   248
   92   303   303
   93   487   487
   94   264   264
   95   423   423
   96    36    36
   97    29    29
   98   224   224
   99   174   174
  100   289   289
  101    40    40
  102   479   479
  103    54    54
  104   142   142
  105   467   467
  106   339   339
  107    46    46
  108   141   141
  109   210   210
  110   196   196
  111    53    53
  112   494   494
  113   191   191
  114    66    66
  115   224   224
  116   324   324
  117   230   230
  118   208   208
  119   488   488
  120   211   211
  121    90    90
  122   300   300
  123   340   340
  124   314   314
  125    49    49
  126   289   289
  127   196   196
  128   401   401
  129   365   365
  130   466   466
  131   178   178
  132   189   189
  133    70    70
  134   333   333
  135   436   436
  136   225   225
  137   222   222
  138   244   244
  139   151   151
  140   349   349
  141   123   123
  142   113   113
  143   431   431
  144   379   379
  145     8     8
  146   361   361
  147    85    85
  148    65    65
  149   353   353
  150   486   486
  151   142   142
  152   186   186
  153   492   492
  154   286   286
  155   225   225
  156   389   389
  157   286   286
  158    24    24
  159   312   312
  160   491   491
  161   359   359
  162   391   391
  163   163   163
  164    90    90
  165    88    88
  166   181   181
  167   179   179
  168   214   214
  169   187   187
  170    17    17
  171   119   119
  172   472   472
  173   261   261
  174   418   418
  175   346   346
  176   419   419
  177   192   192
  178   356   356
  179   261   261
  180   182   182
  181    14    14
  182   306   306
  183   386   386
  184   201   201
  185    30    30
  186   385   385
  187   349   349
  188   452   452
  189   294   294
  190   500   500
  191   299   299
  192   194   194
  193   391   391
  194   237   237
  195   330   330
  196   324   324
  197   298   298
  198   492   492
  199   290   290
  200   224   224
  201   275   275
  202   260   260
  203   326   326
  204    97    97
  205    72    72
  206   210   210
  207   366   366
  208   149   149
  209   451   451
  210   419   419
  211   248   248
  212    63    63
  213   185   185
  214   458   458
  215   456   456
  216   304   304
  217    64    64
  218    18    18
  219   183   183
  220   428   428
  221   400   400
  222    37    37
  223   221   221
  224   346   346
  225   207   207
  226   153   153
  227   323   323
  228   471   471
  229   111   111
  230   162   162
  231   116   116
  232   197   197
  233   109   109
  234    91    91
  235   295   295
  236    29    29
  237   343   343
  238   126   126
  239   362   362
  240   247   247
  241   185   185
  242   469   469
  243    10    10
  244   270   270
  245   381   381
  246   434   434
  247   484   484
  248   223   223
  249   403   403
  250   395   395
  251   360   360
  252    68    68
  253   449   449
  254   172   172
  255    41    41
  256   458   458
  257   272   272
  258   383   383
  259   377   377
  260   308   308
  261   359   359
  262   470   470
  263   207   207
  264    83    83
  265   308   308
  266    48    48
  267   270   270
  268   430   430
  269    30    30
  270    69    69
  271   208   208
  272     3     3
  273   311   311
  274    20    20
  275   100   100
  276   109   109
  277   439   439
  278   387   387
  279   422   422
  280   325   325
  281   285   285
  282   430   430
  283   370   370
  284   404   404
  285   489   489
  286   241   241
  287   469   469
  288   379   379
  289   143   143
  290   376   376
  291   472   472
  292   462   462
  293    28    28
  294   389   389
  295    61    61
  296   443   443
  297   138   138
  298   216   216
  299   348   348
  300   338   338
  301   347   347
  302   160   160
  303    66    66
  304   406   406
  305   391   391
  306   159   159
  307   138   138
  308    31    31
  309   295   295
  310   204   204
  311   326   326
  312   420   420
  313   196   196
  314   153   153
  315   449   449
  316   425   425
  317   355   355
  318   331   331
  319   143   143
  320    65    65
  321   487   487
  322   338   338
  323   140   140
  324     9     9
  325    64    64
  326   418   418
  327   115   115
  328    33    33
  329   135   135
  330   232   232
  331    64    64
  332   457   457
  333   360   360
  334    91    91
  335   293   293
  336    76    76
  337   163   163
  338   246   246
  339   359   359
  340   377   377
  341   260   260
  342   358   358
  343   211   211
  344    86    86
  345   162   162
  346   434   434
  347   159   159
  348    58    58
  349   160   160
  350   279   279
  351   268   268
  352   340   340
  353   448   448
  354   235   235
  355   315   315
  356    74    74
  357   176   176
  358   126   126
  359   341   341
  360   412   412
  361   189   189
  362   239   239
  363   394   394
  364   321   321
  365   206   206
  366   125   125
  367   490   490
  368   417   417
  369   478   478
  370   201   201
  371   171   171
  372   493   493
  373   432   432
  374   149   149
  375   399   399
  376    52    52
  377   237   237
  378   259   259
  379   187   187
  380   267   267
  381   472   472
  382   256   256
  383   272   272
  384   283   283
  385    98    98
  386   117   117
  387   406   406
  388    16    16
  389   411   411
  390   180   180
  391   135   135
  392    25    25
  393   225   225
  394   380   380
  395   323   323
  396   212   212
  397   164   164
  398   266   266
  399   343   343
  400   216   216
  401   232   232
  402   448   448
  403     2     2
  404    41    41
  405   240   240
  406   164   164
  407    76    76
  408   454   454
  409   112   112
  410   226   226
  411   402   402
  412   272   272
  413   454   454
  414    31    31
  415   411   411
  416   443   443
  417   473   473
  418   250   250
  419   203   203
  420   327   327
  421   350   350
  422   417   417
  423    77    77
  424     5     5
  425   220   220
  426   113   113
  427   302   302
  428   413   413
  429   403   403
  430   291   291
  431   181   181
  432   498   498
  433    10    10
  434   359   359
  435    25    25
  436   345   345
  437   419   419
  438   431   431
  439   168   168
  440   175   175
  441    27    27
  442   333   333
  443   462   462
  444   438   438
  445   291   291
  446    23    23
  447   105   105
  448   416   416
  449   457   457
  450   420   420
  451   405   405
  452   115   115
  453   417   417
  454   160   160
  455   279   279
  456   261   261
  457   185   185
  458   272   272
  459    96    96
  460   388   388
  461   307   307
  462   264   264
  463   224   224
  464   343   343
  465   322   322
  466   206   206
  467   340   340
  468   407   407
  469   475   475
  470   139   139
  471   401   401
  472   352   352
  473    91    91
  474    42    42
  475   327   327
  476    60    60
  477   330   330
  478   257   257
  479   182   182
  480    82    82
  481   103   103
  482   137   137
  483   293   293
  484    93    93
  485   115   115
  486   114   114
  487   233   233
  488   136   136
  489   364   364
  490   187   187
  491    16    16
  492   102   102
  493   363   363
  494   472   472
  495   487   487
  496   163   163
  497   306   306
  498     1     1
  499    34    34
  500   477   477
21301
